@RELATION subjective_occupancy_prediction
@ATTRIBUTE userId STRING
@ATTRIBUTE transportType {METRO,TRAIN}
@ATTRIBUTE timestamp NUMERIC
@ATTRIBUTE dayOfWeek {1,2,3,4,5,6,7}
@ATTRIBUTE hour NUMERIC
@ATTRIBUTE isWeekend {0,1}
@ATTRIBUTE isRushHour {0,1}
@ATTRIBUTE latitude NUMERIC
@ATTRIBUTE longitude NUMERIC
@ATTRIBUTE bluetoothCount NUMERIC
@ATTRIBUTE bt_signal_1 NUMERIC
@ATTRIBUTE bt_signal_2 NUMERIC
@ATTRIBUTE bt_signal_3 NUMERIC
@ATTRIBUTE bt_signal_4 NUMERIC
@ATTRIBUTE bt_signal_5 NUMERIC
@ATTRIBUTE wifiCount NUMERIC
@ATTRIBUTE wf_signal_1 NUMERIC
@ATTRIBUTE wf_signal_2 NUMERIC
@ATTRIBUTE wf_signal_3 NUMERIC
@ATTRIBUTE wf_signal_4 NUMERIC
@ATTRIBUTE wf_signal_5 NUMERIC
@ATTRIBUTE latencyAvg NUMERIC
@ATTRIBUTE latencyStdDev NUMERIC
@ATTRIBUTE packetLoss NUMERIC
@ATTRIBUTE rsrp NUMERIC
@ATTRIBUTE rssnr NUMERIC
@ATTRIBUTE rsrq NUMERIC
@ATTRIBUTE subjectiveRating {1,2,3,4,5}

@DATA
c2bf9ee7-ddfa-44df-8f73-b11227bb6b05-v16-api36,METRO,1779357328528,4,10,0,0,38.7414858,-9.1227512,189,-50,-53,-54,-55,-55,20,-58,-65,-70,-70,-70,228.6,123.96225231900235,0.0,-117,-1,-10,2
c2bf9ee7-ddfa-44df-8f73-b11227bb6b05-v16-api36,METRO,1779357361000,4,10,0,0,38.7392267,-9.1260731,136,-50,-51,-52,-53,-56,20,-58,-65,-69,-70,-70,158.56,159.14250972006192,0.0,-94,28,-7,2
c2bf9ee7-ddfa-44df-8f73-b11227bb6b05-v16-api36,METRO,1779357393086,4,10,0,0,38.7392267,-9.1260731,153,-45,-53,-53,-54,-56,21,-58,-65,-65,-66,-70,259.32,295.6275859929178,0.0,-94,28,-7,2
c2bf9ee7-ddfa-44df-8f73-b11227bb6b05-v16-api36,METRO,1779357425735,4,10,0,0,38.7392267,-9.1260731,154,-50,-51,-52,-52,-55,21,-65,-68,-70,-70,-70,313.76,333.86515601362174,0.0,-99,18,-7,2
c2bf9ee7-ddfa-44df-8f73-b11227bb6b05-v16-api36,METRO,1779357457679,4,10,0,0,38.7392267,-9.1260731,129,-50,-51,-55,-56,-56,21,-61,-65,-68,-70,-70,42.82,19.036638358701886,0.0,-92,23,-7,2
c2bf9ee7-ddfa-44df-8f73-b11227bb6b05-v16-api36,METRO,1779356051548,4,10,0,0,38.7139024,-9.1385242,167,-48,-48,-56,-56,-56,2,-69,-81,?,?,?,48.24,24.47517926389917,0.0,-92,19,-7,3
c2bf9ee7-ddfa-44df-8f73-b11227bb6b05-v16-api36,METRO,1779356084081,4,10,0,0,38.7139024,-9.1385242,212,-49,-52,-56,-56,-57,4,-57,-69,-81,-85,?,38.28,28.137547867573677,0.0,-92,29,-5,3
c2bf9ee7-ddfa-44df-8f73-b11227bb6b05-v16-api36,METRO,1779356116403,4,10,0,0,38.7138752,-9.1388701,70,-50,-52,-52,-52,-52,4,-53,-70,-81,-86,?,52.86,33.64702661454649,0.0,-97,14,-7,3
c2bf9ee7-ddfa-44df-8f73-b11227bb6b05-v16-api36,METRO,1779356148774,4,10,0,0,38.7138752,-9.1388701,94,-46,-51,-51,-54,-55,5,-48,-65,-81,-86,-86,49.46,26.866827129380198,0.0,-96,26,-6,3
c2bf9ee7-ddfa-44df-8f73-b11227bb6b05-v16-api36,METRO,1779356181265,4,10,0,0,38.7139024,-9.1385242,80,-54,-55,-57,-58,-58,5,-53,-65,-77,-81,-86,34.58,5.107406386807301,0.0,-102,11,-5,3
c2bf9ee7-ddfa-44df-8f73-b11227bb6b05-v16-api36,METRO,1779356213565,4,10,0,0,38.7290053,-9.1347195,102,-51,-54,-54,-54,-55,5,-53,-68,-81,-86,-88,46.620000000000005,25.769159862129772,0.0,-98,3,-10,3
c2bf9ee7-ddfa-44df-8f73-b11227bb6b05-v16-api36,METRO,1779356245914,4,10,0,0,38.7291173,-9.1347195,109,-52,-57,-57,-57,-60,5,-57,-73,-81,-86,-88,35.06,21.62374620642779,0.0,-102,2,-9,2
c2bf9ee7-ddfa-44df-8f73-b11227bb6b05-v16-api36,METRO,1779356278298,4,10,0,0,38.7291508,-9.1347195,108,-54,-54,-54,-56,-56,6,-51,-69,-81,-82,-86,35.160000000000004,19.589446138163275,0.0,-91,25,-8,2
c2bf9ee7-ddfa-44df-8f73-b11227bb6b05-v16-api36,METRO,1779356310817,4,10,0,0,38.7291486,-9.1347195,106,-53,-54,-55,-56,-58,6,-56,-68,-81,-85,-86,48.26,15.701159192874902,0.0,-109,9,-9,2
c2bf9ee7-ddfa-44df-8f73-b11227bb6b05-v16-api36,METRO,1779356343685,4,10,0,0,38.7291352,-9.1347195,106,-51,-54,-54,-55,-58,6,-55,-64,-81,-85,-86,123.85999999999999,158.35380134369998,0.0,-96,3,-8,2
c2bf9ee7-ddfa-44df-8f73-b11227bb6b05-v16-api36,METRO,1779356375720,4,10,0,0,38.7291352,-9.1347195,69,-50,-56,-57,-57,-60,7,-53,-58,-69,-81,-86,51.64000000000001,21.134010504397885,0.0,-96,3,-8,2
c2bf9ee7-ddfa-44df-8f73-b11227bb6b05-v16-api36,TRAIN,1779354188904,4,10,0,0,38.8589189,-9.0676484,159,-37,-49,-49,-51,-52,3,-51,-52,-85,?,?,63.2,27.52358988213565,0.0,-102,11,-7,5
c2bf9ee7-ddfa-44df-8f73-b11227bb6b05-v16-api36,TRAIN,1779354246913,4,10,0,0,38.8533302,-9.0728323,0,?,?,?,?,?,3,-51,-62,-85,?,?,93.34,66.23753014719072,0.0,-102,11,-7,5
c2bf9ee7-ddfa-44df-8f73-b11227bb6b05-v16-api36,TRAIN,1779354407532,4,10,0,0,38.8316444,-9.0849294,0,?,?,?,?,?,3,-52,-57,-85,?,?,72.16,66.96305249912074,0.0,-102,11,-7,5
c2bf9ee7-ddfa-44df-8f73-b11227bb6b05-v16-api36,TRAIN,1779354524077,4,10,0,0,38.7725716,-9.0980654,0,?,?,?,?,?,0,-52,-57,-85,?,?,131.16,154.54373620435092,0.0,-102,11,-7,5
c2bf9ee7-ddfa-44df-8f73-b11227bb6b05-v16-api36,TRAIN,1779354595979,4,10,0,0,38.7683539,-9.0980654,0,?,?,?,?,?,7,-51,-59,-77,-85,-87,75.82,75.38515503731487,0.0,-83,16,-9,5
c2bf9ee7-ddfa-44df-8f73-b11227bb6b05-v16-api36,TRAIN,1779354628477,4,10,0,0,38.7675075,-9.0985373,168,-50,-50,-51,-54,-57,10,-48,-59,-73,-77,-84,40.36,19.11466452752964,0.0,-83,16,-9,3
c2bf9ee7-ddfa-44df-8f73-b11227bb6b05-v16-api36,TRAIN,1779354660896,4,10,0,0,38.7673913,-9.0988605,126,-45,-45,-51,-52,-55,14,-59,-59,-67,-73,-74,222.14000000000001,262.7225350060402,0.0,-79,11,-8,3
c2bf9ee7-ddfa-44df-8f73-b11227bb6b05-v16-api36,TRAIN,1779354693359,4,10,0,0,38.7630885,-9.0996623,103,-47,-48,-48,-49,-52,17,-57,-59,-67,-73,-74,31.3,20.80557617563138,0.0,-79,11,-8,3
c2bf9ee7-ddfa-44df-8f73-b11227bb6b05-v16-api36,TRAIN,1779354725730,4,10,0,0,38.7561182,-9.1003832,96,-44,-46,-50,-50,-51,39,-53,-59,-67,-73,-74,55.86,68.0712156494946,0.0,-101,10,-10,3
c2bf9ee7-ddfa-44df-8f73-b11227bb6b05-v16-api36,TRAIN,1779354758327,4,10,0,0,38.7468145,-9.1028453,98,-44,-48,-52,-53,-53,45,-56,-59,-67,-73,-74,30.74,16.32416613490564,0.0,-104,10,-9,3
c2bf9ee7-ddfa-44df-8f73-b11227bb6b05-v16-api36,TRAIN,1779354790572,4,10,0,0,38.7401956,-9.1053411,91,-51,-52,-53,-54,-55,46,-52,-59,-67,-73,-74,40.3,35.90782644494094,0.0,-112,5,-9,3
c2bf9ee7-ddfa-44df-8f73-b11227bb6b05-v16-api36,TRAIN,1779354823054,4,10,0,0,38.7347075,-9.1074932,94,-48,-49,-49,-49,-50,47,-58,-59,-67,-73,-74,34.28,23.2331142983458,0.0,-95,23,-10,3
c2bf9ee7-ddfa-44df-8f73-b11227bb6b05-v16-api36,TRAIN,1779354855567,4,10,0,0,38.7302409,-9.1098239,91,-46,-48,-50,-52,-53,47,-59,-60,-67,-73,-74,52.779999999999994,24.03350993924941,0.0,-110,-7,-9,3
c2bf9ee7-ddfa-44df-8f73-b11227bb6b05-v16-api36,TRAIN,1779354887875,4,10,0,0,38.7236261,-9.1137048,98,-46,-47,-49,-51,-53,47,-58,-59,-67,-73,-74,40.98,18.506798750729416,0.0,-92,5,-11,3
c2bf9ee7-ddfa-44df-8f73-b11227bb6b05-v16-api36,TRAIN,1779354920323,4,10,0,0,38.7201421,-9.1165019,98,-52,-52,-52,-52,-53,52,-56,-59,-67,-68,-69,42.98,28.725556565539332,0.0,-92,5,-11,3
c2bf9ee7-ddfa-44df-8f73-b11227bb6b05-v16-api36,TRAIN,1779354952838,4,10,0,0,38.7186006,-9.1178552,97,-49,-51,-54,-54,-54,53,-52,-59,-67,-68,-69,24.419999999999998,1.9124852940611063,0.0,-97,-2,-9,3
c2bf9ee7-ddfa-44df-8f73-b11227bb6b05-v16-api36,TRAIN,1779354985432,4,10,0,0,38.7180636,-9.1185049,127,-48,-49,-49,-51,-51,79,-49,-59,-67,-68,-69,38.300000000000004,3.2049960998416216,0.0,-99,4,-11,3
c2bf9ee7-ddfa-44df-8f73-b11227bb6b05-v16-api36,TRAIN,1779355018003,4,10,0,0,38.7163615,-9.1202449,155,-42,-47,-47,-47,-50,100,-47,-59,-62,-67,-68,36.72,18.983297922120908,0.0,-95,16,-8,3
c2bf9ee7-ddfa-44df-8f73-b11227bb6b05-v16-api36,TRAIN,1779300769324,3,19,0,1,38.768168,-9.0991756,168,-46,-50,-51,-51,-52,6,-47,-81,-85,-85,-86,52.7,25.008718479762212,0.0,-81,12,-10,3
c2bf9ee7-ddfa-44df-8f73-b11227bb6b05-v16-api36,TRAIN,1779300801633,3,19,0,1,38.7750119,-9.0990885,125,-53,-55,-55,-56,-56,9,-41,-79,-79,-80,-81,52.32000000000001,24.432552056631337,0.0,-86,-3,-10,3
c2bf9ee7-ddfa-44df-8f73-b11227bb6b05-v16-api36,TRAIN,1779300834083,3,19,0,1,38.7775992,-9.0996108,118,-42,-50,-54,-59,-60,9,-46,-79,-79,-80,-81,52.94,19.32527878194775,0.0,-109,1,-12,3
c2bf9ee7-ddfa-44df-8f73-b11227bb6b05-v16-api36,TRAIN,1779300866573,3,19,0,1,38.7778009,-9.0994995,126,-34,-49,-58,-58,-60,17,-48,-79,-79,-80,-81,64.2,28.358913942533132,0.0,-109,1,-12,3
c2bf9ee7-ddfa-44df-8f73-b11227bb6b05-v16-api36,TRAIN,1779300899077,3,19,0,1,38.7797392,-9.0998182,137,-43,-51,-52,-55,-55,20,-52,-79,-79,-79,-80,105.1,80.35481317257853,0.0,-123,-12,-15,3
c2bf9ee7-ddfa-44df-8f73-b11227bb6b05-v16-api36,TRAIN,1779300931240,3,19,0,1,38.7866497,-9.100848,121,-52,-52,-53,-56,-56,24,-50,-79,-79,-79,-80,50.3,6.801764476957431,0.0,-95,8,-9,3
c2bf9ee7-ddfa-44df-8f73-b11227bb6b05-v16-api36,TRAIN,1779300963735,3,19,0,1,38.7935336,-9.1003597,122,-47,-53,-54,-55,-56,24,-59,-79,-79,-79,-80,78.44000000000001,18.017280593918716,0.0,-110,13,-10,3
c2bf9ee7-ddfa-44df-8f73-b11227bb6b05-v16-api36,TRAIN,1779300996567,3,19,0,1,38.7908712,-9.1087832,0,?,?,?,?,?,24,-74,-79,-79,-79,-80,144.73999999999998,116.15122212013097,0.0,-110,13,-10,3
c2bf9ee7-ddfa-44df-8f73-b11227bb6b05-v16-api36,TRAIN,1779301041918,3,19,0,1,38.7898986,-9.1046342,0,?,?,?,?,?,0,-74,-79,-79,-79,-80,255.64000000000001,295.32039956630155,0.0,-112,-1,-14,3
c2bf9ee7-ddfa-44df-8f73-b11227bb6b05-v16-api36,TRAIN,1779301073535,3,19,0,1,38.7971345,-9.0991849,122,-38,-50,-51,-55,-56,24,-74,-79,-79,-79,-80,40.64,19.82448990516528,0.0,-96,1,-12,3
c2bf9ee7-ddfa-44df-8f73-b11227bb6b05-v16-api36,TRAIN,1779301105923,3,19,0,1,38.8009832,-9.0977683,105,-34,-51,-54,-54,-56,26,-74,-79,-79,-79,-80,57.96,68.55195402029032,0.0,-103,5,-14,3
c2bf9ee7-ddfa-44df-8f73-b11227bb6b05-v16-api36,TRAIN,1779301138237,3,19,0,1,38.8057542,-9.0953552,106,-34,-53,-54,-55,-55,0,-74,-79,-79,-79,-80,48.42,31.352409795739785,0.0,-98,14,-8,3
c2bf9ee7-ddfa-44df-8f73-b11227bb6b05-v16-api36,TRAIN,1779301189653,3,19,0,1,38.8068556,-9.0947247,97,-43,-49,-52,-52,-53,28,-74,-79,-79,-79,-80,86.3,87.30335617832797,0.0,-87,17,-7,3
c2bf9ee7-ddfa-44df-8f73-b11227bb6b05-v16-api36,TRAIN,1779301222126,3,19,0,1,38.8087059,-9.0938722,0,?,?,?,?,?,32,-64,-69,-74,-79,-79,80.38,67.03325741749389,0.0,-77,27,-9,3
c2bf9ee7-ddfa-44df-8f73-b11227bb6b05-v16-api36,TRAIN,1779301254374,3,19,0,1,38.8149321,-9.0905895,103,-38,-50,-55,-56,-57,0,-64,-69,-74,-79,-79,48.559999999999995,17.814780380347102,0.0,-107,-2,-8,3
c2bf9ee7-ddfa-44df-8f73-b11227bb6b05-v16-api36,TRAIN,1779301286657,3,19,0,1,38.8265365,-9.086172,96,-34,-50,-52,-54,-54,0,-64,-69,-74,-79,-79,45.72,19.189726418060264,0.0,-78,17,-12,3
c2bf9ee7-ddfa-44df-8f73-b11227bb6b05-v16-api36,TRAIN,1779301319255,3,19,0,1,38.8346438,-9.0833136,105,-35,-52,-54,-55,-56,0,-64,-69,-74,-79,-79,93.84,91.24552810960108,0.0,-111,-2,-11,3
c2bf9ee7-ddfa-44df-8f73-b11227bb6b05-v16-api36,TRAIN,1779301351636,3,19,0,1,38.8395376,-9.0810241,102,-36,-51,-52,-55,-55,51,-64,-69,-74,-77,-77,43.459999999999994,22.360375667685016,0.0,-110,-2,-12,3
c2bf9ee7-ddfa-44df-8f73-b11227bb6b05-v16-api36,TRAIN,1779301383976,3,19,0,1,38.8406276,-9.0805137,117,-36,-54,-54,-55,-55,0,-64,-69,-74,-77,-77,24.2,0.8173126696681028,0.0,-110,10,-9,3
c2bf9ee7-ddfa-44df-8f73-b11227bb6b05-v16-api36,TRAIN,1779301417165,3,19,0,1,38.8408345,-9.0803781,101,-38,-53,-54,-55,-56,52,-64,-69,-74,-77,-77,397.86,403.9958791869046,0.0,-100,14,-8,3
c2bf9ee7-ddfa-44df-8f73-b11227bb6b05-v16-api36,TRAIN,1779301448736,3,19,0,1,38.8475806,-9.0763531,106,-39,-50,-52,-55,-56,55,-64,-69,-74,-77,-77,42.22,27.479112067168405,0.0,-102,9,-10,3
c2bf9ee7-ddfa-44df-8f73-b11227bb6b05-v16-api36,TRAIN,1779301481171,3,19,0,1,38.8549552,-9.0706341,96,-38,-52,-53,-54,-56,0,-64,-69,-74,-77,-77,106.12,83.7097461470288,0.0,-89,3,-9,3
f7a5a2a2-5748-4c1d-ae11-61c4dac8867e-v16-api36,TRAIN,1779300768853,3,19,0,1,38.768433,-9.0993938,97,127,127,-55,-55,-55,8,-44,-73,-73,-81,-82,75.88,58.00418605583566,0.0,-87,3,-12,3
f7a5a2a2-5748-4c1d-ae11-61c4dac8867e-v16-api36,TRAIN,1779300811498,3,19,0,1,38.7750351,-9.0992145,50,-55,-57,-57,-59,-61,39,-38,-73,-73,-73,-77,291.77500000000003,325.1889633351661,0.2,-105,16,-8,3
f7a5a2a2-5748-4c1d-ae11-61c4dac8867e-v16-api36,TRAIN,1779300842455,3,19,0,1,38.7777956,-9.0993967,72,-54,-57,-57,-60,-62,87,-51,-62,-66,-67,-72,49.839999999999996,43.06128655764943,0.0,-113,-2,-11,3
f7a5a2a2-5748-4c1d-ae11-61c4dac8867e-v16-api36,TRAIN,1779300875108,3,19,0,1,38.7778534,-9.0995587,83,-51,-53,-54,-61,-61,115,-42,-62,-63,-63,-64,83.96000000000001,65.19418992517662,0.0,-113,-1,-11,3
f7a5a2a2-5748-4c1d-ae11-61c4dac8867e-v16-api36,TRAIN,1779300907447,3,19,0,1,38.7818865,-9.1001901,72,-48,-53,-55,-56,-57,124,-44,-62,-63,-63,-64,30.880000000000003,9.385179806482133,0.0,-80,12,-9,3
f7a5a2a2-5748-4c1d-ae11-61c4dac8867e-v16-api36,TRAIN,1779300940110,3,19,0,1,38.7892018,-9.1010847,76,-57,-57,-58,-59,-63,128,-53,-62,-63,-63,-64,27.860000000000003,8.854512973619723,0.0,-85,6,-10,3
f7a5a2a2-5748-4c1d-ae11-61c4dac8867e-v16-api36,TRAIN,1779300972652,3,19,0,1,38.7948114,-9.0999426,80,-57,-58,-58,-58,-58,138,-52,-62,-63,-63,-64,34.34,11.011012669141746,0.0,-104,-2,-13,3
f7a5a2a2-5748-4c1d-ae11-61c4dac8867e-v16-api36,TRAIN,1779301005243,3,19,0,1,38.7950094,-9.0999034,87,-55,-56,-57,-57,-58,140,-62,-63,-63,-63,-64,37.96,22.70414940049506,0.0,-109,-7,-17,3
f7a5a2a2-5748-4c1d-ae11-61c4dac8867e-v16-api36,TRAIN,1779301037899,3,19,0,1,38.7950096,-9.0999097,80,127,-50,-55,-56,-58,0,-62,-63,-63,-63,-64,61.14,42.74227883489602,0.0,-107,-3,-15,3
f7a5a2a2-5748-4c1d-ae11-61c4dac8867e-v16-api36,TRAIN,1779301071202,3,19,0,1,38.797064,-9.0992168,83,-44,-58,-60,-60,-60,141,-62,-63,-63,-64,-65,22.639999999999997,1.9147845831842285,0.0,-82,3,-11,3
f7a5a2a2-5748-4c1d-ae11-61c4dac8867e-v16-api36,TRAIN,1779301103092,3,19,0,1,38.8005078,-9.098004,70,-50,-55,-58,-59,-64,147,-62,-63,-63,-64,-65,51.58,34.96623514191941,0.0,-106,4,-12,3
f7a5a2a2-5748-4c1d-ae11-61c4dac8867e-v16-api36,TRAIN,1779301135452,3,19,0,1,38.8053159,-9.0955628,84,-55,-57,-59,-59,-59,0,-62,-63,-63,-64,-65,21.98,2.172924296886571,0.0,-86,17,-7,3
f7a5a2a2-5748-4c1d-ae11-61c4dac8867e-v16-api36,TRAIN,1779301167921,3,19,0,1,38.8068814,-9.0946578,80,-55,-57,-61,-66,-67,0,-62,-63,-63,-64,-65,24.880000000000003,8.00884511025154,0.0,-75,27,-5,3
f7a5a2a2-5748-4c1d-ae11-61c4dac8867e-v16-api36,TRAIN,1779301200351,3,19,0,1,38.8071897,-9.0946964,79,-54,-57,-57,-58,-59,154,-62,-63,-63,-64,-65,21.139999999999997,4.095167884226482,0.0,-84,20,-6,3
f7a5a2a2-5748-4c1d-ae11-61c4dac8867e-v16-api36,TRAIN,1779301232910,3,19,0,1,38.8113919,-9.0924114,74,-59,-59,-60,-60,-66,156,-62,-63,-63,-64,-65,20.42,0.5635601121442152,0.0,-91,7,-7,3
f7a5a2a2-5748-4c1d-ae11-61c4dac8867e-v16-api36,TRAIN,1779301267127,3,19,0,1,38.8188413,-9.0888831,79,-53,-54,-56,-57,-58,0,-62,-63,-63,-64,-65,248.85,358.8425316207653,0.2,-99,2,-14,3
f7a5a2a2-5748-4c1d-ae11-61c4dac8867e-v16-api36,TRAIN,1779301297934,3,19,0,1,38.8276397,-9.0857425,83,-48,-49,-55,-58,-58,161,-62,-63,-63,-64,-65,167.14,207.81585695032993,0.0,-96,-6,-11,3
f7a5a2a2-5748-4c1d-ae11-61c4dac8867e-v16-api36,TRAIN,1779301330585,3,19,0,1,38.8373415,-9.0821658,68,-49,-52,-57,-58,-58,0,-62,-63,-63,-64,-65,108.7,84.30217079055558,0.0,-105,-6,-11,3
f7a5a2a2-5748-4c1d-ae11-61c4dac8867e-v16-api36,TRAIN,1779301362936,3,19,0,1,38.8406481,-9.0806172,65,-54,-56,-57,-59,-62,0,-62,-63,-63,-64,-65,84.26,54.78056589704053,0.0,-97,8,-8,3
f7a5a2a2-5748-4c1d-ae11-61c4dac8867e-v16-api36,TRAIN,1779301395502,3,19,0,1,38.8406751,-9.0805446,63,-58,-59,-62,-62,-64,0,-62,-63,-63,-64,-65,343.12,491.4121300904161,0.0,-102,1,-10,3
f7a5a2a2-5748-4c1d-ae11-61c4dac8867e-v16-api36,TRAIN,1779301428430,3,19,0,1,38.8424701,-9.0794847,84,-50,-51,-54,-57,-58,162,-62,-63,-63,-64,-65,503.18,509.40998184173816,0.0,-100,7,-13,3
f7a5a2a2-5748-4c1d-ae11-61c4dac8867e-v16-api36,TRAIN,1779301460526,3,19,0,1,38.8514192,-9.0739542,69,-50,-58,-58,-59,-59,164,-62,-63,-63,-64,-65,21.860000000000003,2.4936719912610803,0.0,-87,10,-11,3
f7a5a2a2-5748-4c1d-ae11-61c4dac8867e-v16-api36,TRAIN,1779301493077,3,19,0,1,38.8563253,-9.0685647,65,-54,-54,-55,-61,-61,0,-62,-63,-63,-64,-65,27.74,10.88753415608879,0.0,-97,6,-11,3
c2bf9ee7-ddfa-44df-8f73-b11227bb6b05-v16-api36,METRO,1779300279298,3,19,0,1,38.761567,-9.1101663,171,-44,-50,-51,-51,-52,1,-65,?,?,?,?,49.4,19.99469929756384,0.0,-100,25,-7,4
c2bf9ee7-ddfa-44df-8f73-b11227bb6b05-v16-api36,METRO,1779300316054,3,19,0,1,38.761567,-9.1101663,0,?,?,?,?,?,1,-67,?,?,?,?,93.92,60.96164039787644,0.0,-103,20,-6,4
c2bf9ee7-ddfa-44df-8f73-b11227bb6b05-v16-api36,METRO,1779300348574,3,19,0,1,38.761567,-9.1101663,156,-44,-48,-50,-50,-51,0,-67,?,?,?,?,24.42,2.371834732859775,0.0,-105,23,-5,4
c2bf9ee7-ddfa-44df-8f73-b11227bb6b05-v16-api36,METRO,1779300381080,3,19,0,1,38.761567,-9.1101663,141,-42,-45,-50,-54,-56,2,-67,-77,?,?,?,48.480000000000004,29.19543799979716,0.0,-105,21,-5,4
c2bf9ee7-ddfa-44df-8f73-b11227bb6b05-v16-api36,METRO,1779300413562,3,19,0,1,38.761567,-9.1101663,145,-51,-56,-56,-56,-58,0,-67,-77,?,?,?,77.88,65.37202459768245,0.0,-99,26,-8,4
c2bf9ee7-ddfa-44df-8f73-b11227bb6b05-v16-api36,METRO,1779300446030,3,19,0,1,38.761567,-9.1101663,127,-51,-51,-52,-53,-54,2,-67,-77,?,?,?,50.7,26.131054322395798,0.0,-93,28,-7,4
f7a5a2a2-5748-4c1d-ae11-61c4dac8867e-v16-api36,METRO,1779300256173,3,19,0,1,38.7548442,-9.1138077,108,127,-43,-43,-46,-49,3,-55,-59,-69,?,?,107.7,100.00067999768802,0.0,-110,4,-11,4
f7a5a2a2-5748-4c1d-ae11-61c4dac8867e-v16-api36,METRO,1779300294571,3,19,0,1,38.7548442,-9.1138077,92,-48,-48,-49,-52,-53,4,-55,-69,-73,-76,?,279.36,161.15718538122957,0.0,-96,10,-7,4
f7a5a2a2-5748-4c1d-ae11-61c4dac8867e-v16-api36,METRO,1779300342727,3,19,0,1,38.7548442,-9.1138077,0,?,?,?,?,?,5,-55,-69,-70,-73,-76,388.41999999999996,308.66808322209147,0.0,-121,-2,-8,4
f7a5a2a2-5748-4c1d-ae11-61c4dac8867e-v16-api36,METRO,1779300388837,3,19,0,1,38.7548442,-9.1138077,0,?,?,?,?,?,5,-55,-70,-73,-76,-78,143.2,57.232123846665,0.0,-102,12,-5,4
f7a5a2a2-5748-4c1d-ae11-61c4dac8867e-v16-api36,METRO,1779300446871,3,19,0,1,38.7548442,-9.1138077,0,?,?,?,?,?,5,-55,-70,-73,-74,-76,3813.4,1447.0239251650264,0.0,-106,19,-7,4
f7a5a2a2-5748-4c1d-ae11-61c4dac8867e-v16-api36,METRO,1779274216723,3,11,0,0,38.7681251,-9.0995472,86,-59,-59,-59,-60,-60,0,?,?,?,?,?,1779.0,0.0,0.8,-101,12,-10,3
f7a5a2a2-5748-4c1d-ae11-61c4dac8867e-v16-api36,METRO,1779274249248,3,11,0,0,38.7638385,-9.1060172,81,-56,-56,-62,-62,-62,0,?,?,?,?,?,400.73333333333335,462.17284885876,0.4,-85,30,-6,3
f7a5a2a2-5748-4c1d-ae11-61c4dac8867e-v16-api36,METRO,1779274279788,3,11,0,0,38.7638385,-9.1060172,80,-58,-59,-60,-61,-61,1,-90,?,?,?,?,198.68,178.14423818917075,0.0,-91,30,-6,3
f7a5a2a2-5748-4c1d-ae11-61c4dac8867e-v16-api36,METRO,1779274312390,3,11,0,0,38.7638385,-9.1060172,85,-59,-60,-61,-61,-61,0,-90,?,?,?,?,48.46,24.51893961818088,0.0,-88,24,-4,3
f7a5a2a2-5748-4c1d-ae11-61c4dac8867e-v16-api36,METRO,1779274344874,3,11,0,0,38.7638385,-9.1060172,88,-55,-58,-61,-62,-63,5,-59,-71,-82,-88,-90,62.38000000000001,50.77662454318916,0.0,-91,30,-6,3
f7a5a2a2-5748-4c1d-ae11-61c4dac8867e-v16-api36,METRO,1779274379303,3,11,0,0,38.7638385,-9.1060172,89,-52,-55,-57,-60,-61,6,-45,-71,-82,-86,-88,603.875,316.5628640175597,0.2,-96,22,-7,3
f7a5a2a2-5748-4c1d-ae11-61c4dac8867e-v16-api36,TRAIN,1779272967675,3,11,0,0,38.8559526,-9.0690368,79,-44,-52,-55,-55,-57,7,-31,-42,-46,-68,-75,463.26000000000005,572.2597578023463,0.0,-103,5,-14,2
f7a5a2a2-5748-4c1d-ae11-61c4dac8867e-v16-api36,TRAIN,1779273000586,3,11,0,0,38.8509322,-9.0741584,81,-57,-57,-58,-59,-61,25,-40,-41,-50,-68,-75,942.0799999999999,893.2087917166959,0.0,-97,6,-12,2
f7a5a2a2-5748-4c1d-ae11-61c4dac8867e-v16-api36,TRAIN,1779273032734,3,11,0,0,38.8421598,-9.0796037,78,-46,-54,-55,-57,-58,29,-36,-40,-50,-68,-74,27.880000000000003,12.75106270081047,0.0,-96,-6,-9,2
f7a5a2a2-5748-4c1d-ae11-61c4dac8867e-v16-api36,TRAIN,1779273065345,3,11,0,0,38.8402297,-9.080623,78,-52,-53,-54,-57,-57,30,-29,-44,-51,-68,-69,27.18,6.471599493170138,0.0,-103,7,-8,2
f7a5a2a2-5748-4c1d-ae11-61c4dac8867e-v16-api36,TRAIN,1779273097771,3,11,0,0,38.8399678,-9.0807878,66,-51,-57,-61,-61,-62,35,-32,-38,-53,-68,-68,167.60000000000002,231.7170429640427,0.0,-103,2,-9,2
f7a5a2a2-5748-4c1d-ae11-61c4dac8867e-v16-api36,TRAIN,1779273130303,3,11,0,0,38.8330311,-9.0838301,71,-49,-52,-58,-59,-60,35,-34,-36,-42,-68,-71,57.019999999999996,47.32286550918065,0.0,-88,9,-10,2
f7a5a2a2-5748-4c1d-ae11-61c4dac8867e-v16-api36,TRAIN,1779273162809,3,11,0,0,38.8248675,-9.0867191,71,-53,-54,-56,-56,-57,47,-30,-36,-42,-68,-71,93.66,56.97268117264625,0.0,-84,19,-8,2
f7a5a2a2-5748-4c1d-ae11-61c4dac8867e-v16-api36,TRAIN,1779273195301,3,11,0,0,38.816232,-9.0897048,68,-51,-56,-60,-61,-62,47,-31,-39,-50,-64,-72,209.04000000000002,250.29272941897455,0.0,-96,10,-11,2
f7a5a2a2-5748-4c1d-ae11-61c4dac8867e-v16-api36,TRAIN,1779273227889,3,11,0,0,38.8080171,-9.0941528,73,-57,-58,-60,-61,-62,47,-32,-38,-49,-66,-70,134.0,107.65517172899777,0.0,-88,18,-6,2
f7a5a2a2-5748-4c1d-ae11-61c4dac8867e-v16-api36,TRAIN,1779273264139,3,11,0,0,38.8068726,-9.0947104,67,-58,-58,-61,-61,-62,50,-31,-42,-44,-66,-70,680.775,745.9760464485437,0.2,-83,22,-9,2
f7a5a2a2-5748-4c1d-ae11-61c4dac8867e-v16-api36,TRAIN,1779273293048,3,11,0,0,38.8045029,-9.0959647,77,-53,-59,-60,-61,-62,51,-32,-39,-50,-58,-67,34.260000000000005,15.338787435778618,0.0,-98,10,-7,2
f7a5a2a2-5748-4c1d-ae11-61c4dac8867e-v16-api36,TRAIN,1779273325801,3,11,0,0,38.7975142,-9.0990353,77,-54,-59,-61,-61,-63,51,-32,-39,-46,-58,-66,59.2,56.12372047539258,0.0,-96,1,-13,2
f7a5a2a2-5748-4c1d-ae11-61c4dac8867e-v16-api36,TRAIN,1779273358234,3,11,0,0,38.7954277,-9.0996756,75,-49,-59,-59,-59,-59,58,-31,-31,-45,-58,-67,28.660000000000004,6.6545022353291,0.0,-103,2,-12,2
f7a5a2a2-5748-4c1d-ae11-61c4dac8867e-v16-api36,TRAIN,1779273390909,3,11,0,0,38.7940415,-9.1001426,81,-48,-54,-57,-61,-61,61,-38,-55,-58,-62,-67,69.02000000000001,53.62627714096887,0.0,-101,-3,-13,1
f7a5a2a2-5748-4c1d-ae11-61c4dac8867e-v16-api36,TRAIN,1779273423609,3,11,0,0,38.7896796,-9.1011104,84,-51,-52,-57,-58,-62,62,-39,-48,-58,-62,-67,119.75999999999999,194.12735613508983,0.0,-78,4,-12,1
f7a5a2a2-5748-4c1d-ae11-61c4dac8867e-v16-api36,TRAIN,1779273456139,3,11,0,0,38.786648,-9.1008546,77,-56,-56,-58,-59,-60,72,-37,-48,-58,-62,-66,197.86,173.73620923687727,0.0,-76,3,-9,1
f7a5a2a2-5748-4c1d-ae11-61c4dac8867e-v16-api36,TRAIN,1779273488838,3,11,0,0,38.786204,-9.1006656,76,-55,-56,-56,-58,-59,83,-36,-48,-58,-62,-66,50.616666666666674,35.41461170508894,-0.2,-71,14,-9,1
f7a5a2a2-5748-4c1d-ae11-61c4dac8867e-v16-api36,TRAIN,1779273521557,3,11,0,0,38.7835695,-9.1004117,61,127,-55,-55,-56,-58,102,-32,-48,-58,-62,-66,179.88,197.21020663241546,0.0,-79,22,-7,1
f7a5a2a2-5748-4c1d-ae11-61c4dac8867e-v16-api36,TRAIN,1779273563464,3,11,0,0,38.7814645,-9.1000005,68,-56,-58,-60,-62,-62,102,-31,-56,-58,-62,-66,61.04,50.0269767225644,0.0,-95,13,-10,1
f7a5a2a2-5748-4c1d-ae11-61c4dac8867e-v16-api36,TRAIN,1779273595768,3,11,0,0,38.7789738,-9.09975,89,127,-54,-55,-60,-60,127,-32,-48,-58,-62,-65,60.31999999999999,43.85979480116158,0.0,-81,13,-8,1
f7a5a2a2-5748-4c1d-ae11-61c4dac8867e-v16-api36,TRAIN,1779273628131,3,11,0,0,38.7789986,-9.0997417,72,-53,-55,-55,-56,-56,147,-46,-46,-58,-62,-64,98.9,86.29057886003547,0.0,-81,14,-7,1
f7a5a2a2-5748-4c1d-ae11-61c4dac8867e-v16-api36,TRAIN,1779273660703,3,11,0,0,38.7781683,-9.0996048,76,-48,-55,-56,-58,-59,189,-36,-51,-55,-58,-62,96.7,59.072971822991946,0.0,-96,7,-10,1
f7a5a2a2-5748-4c1d-ae11-61c4dac8867e-v16-api36,TRAIN,1779273693240,3,11,0,0,38.7774172,-9.0995693,90,-54,-55,-55,-58,-59,212,-35,-52,-55,-58,-62,60.92,40.70957626898124,0.0,-99,1,-11,1
f7a5a2a2-5748-4c1d-ae11-61c4dac8867e-v16-api36,TRAIN,1779273725741,3,11,0,0,38.7774415,-9.0995362,80,-52,-55,-56,-61,-62,222,-36,-55,-55,-58,-62,79.82,73.38104387374166,0.0,-100,3,-11,1
f7a5a2a2-5748-4c1d-ae11-61c4dac8867e-v16-api36,TRAIN,1779273758366,3,11,0,0,38.7774264,-9.099568,83,-54,-58,-59,-59,-60,222,-36,-49,-55,-58,-62,87.38000000000001,65.67308124338312,0.0,-99,3,-12,1
f7a5a2a2-5748-4c1d-ae11-61c4dac8867e-v16-api36,TRAIN,1779273790845,3,11,0,0,38.7769487,-9.0994531,80,-47,-53,-54,-54,-59,227,-32,-50,-55,-58,-62,137.82,122.25701452268495,0.0,-95,-4,-13,1
f7a5a2a2-5748-4c1d-ae11-61c4dac8867e-v16-api36,TRAIN,1779273823291,3,11,0,0,38.7751674,-9.0991223,75,-46,-52,-52,-54,-61,278,-34,-47,-55,-58,-62,225.98000000000002,293.22278492641055,0.0,-79,19,-7,1
c2bf9ee7-ddfa-44df-8f73-b11227bb6b05-v16-api36,METRO,1779258913457,3,7,0,1,38.7676392,-9.0996348,62,-61,-61,-61,-62,-65,3,-56,-69,-70,?,?,84.56,40.60328065563176,0.0,-89,30,-7,2
c2bf9ee7-ddfa-44df-8f73-b11227bb6b05-v16-api36,METRO,1779258946037,3,7,0,1,38.761567,-9.1101663,0,?,?,?,?,?,4,-57,-69,-70,-81,?,61.379999999999995,59.4909539341907,0.0,-98,22,-5,2
c2bf9ee7-ddfa-44df-8f73-b11227bb6b05-v16-api36,METRO,1779258978462,3,7,0,1,38.761594,-9.1098205,154,-58,-58,-59,-59,-59,4,-59,-69,-70,-81,?,49.86,19.856746964193302,0.0,-92,27,-6,2
c2bf9ee7-ddfa-44df-8f73-b11227bb6b05-v16-api36,METRO,1779259011907,3,7,0,1,38.761594,-9.1098205,106,-50,-54,-56,-60,-60,4,-55,-69,-70,-81,?,83.475,37.10170986625818,0.2,-106,15,-8,2
c2bf9ee7-ddfa-44df-8f73-b11227bb6b05-v16-api36,METRO,1779259043389,3,7,0,1,38.761567,-9.1101663,100,-49,-51,-54,-57,-57,4,-61,-69,-70,-81,?,39.839999999999996,21.81711254955614,0.0,-97,26,-8,2
c2bf9ee7-ddfa-44df-8f73-b11227bb6b05-v16-api36,METRO,1779259076079,3,7,0,1,38.761567,-9.1101663,139,-51,-51,-53,-54,-55,4,-58,-69,-70,-81,?,90.56,84.98137678338708,0.0,-97,30,-6,2
c2bf9ee7-ddfa-44df-8f73-b11227bb6b05-v16-api36,METRO,1779259108797,3,7,0,1,38.7392267,-9.1260731,112,-54,-55,-56,-56,-56,4,-36,-69,-70,-81,?,73.74,81.1314390356784,0.0,-95,20,-8,2
c2bf9ee7-ddfa-44df-8f73-b11227bb6b05-v16-api36,TRAIN,1779257667403,3,7,0,1,38.8564665,-9.068443,104,-45,-50,-51,-54,-56,1,-86,?,?,?,?,58.160000000000004,31.272582240678492,0.0,-97,15,-7,3
c2bf9ee7-ddfa-44df-8f73-b11227bb6b05-v16-api36,TRAIN,1779257715774,3,7,0,1,38.8488533,-9.0756931,0,?,?,?,?,?,5,-71,-86,-86,-88,-88,59.080000000000005,31.393719117046324,0.0,-99,7,-11,3
c2bf9ee7-ddfa-44df-8f73-b11227bb6b05-v16-api36,TRAIN,1779257748086,3,7,0,1,38.8421006,-9.0799067,112,-48,-48,-49,-52,-54,9,-68,-83,-84,-84,-84,32.36,4.404815546648917,0.0,-81,16,-12,3
c2bf9ee7-ddfa-44df-8f73-b11227bb6b05-v16-api36,TRAIN,1779257780349,3,7,0,1,38.8403226,-9.0808325,100,-42,-48,-52,-53,-53,10,-66,-83,-84,-84,-84,45.760000000000005,21.895351104743675,0.0,-99,10,-9,3
c2bf9ee7-ddfa-44df-8f73-b11227bb6b05-v16-api36,TRAIN,1779257812730,3,7,0,1,38.8401015,-9.0809131,88,-54,-54,-54,-54,-58,10,-71,-83,-84,-84,-84,82.32000000000001,45.058291134928766,0.0,-99,10,-9,3
c2bf9ee7-ddfa-44df-8f73-b11227bb6b05-v16-api36,TRAIN,1779257845079,3,7,0,1,38.8364107,-9.0826336,105,-42,-50,-53,-53,-53,16,-70,-78,-83,-84,-84,75.66,54.052145193322346,0.0,-106,1,-13,3
c2bf9ee7-ddfa-44df-8f73-b11227bb6b05-v16-api36,TRAIN,1779257877340,3,7,0,1,38.8291892,-9.0853343,102,-51,-51,-52,-54,-54,20,-54,-78,-80,-80,-82,74.84,67.88489080789627,0.0,-98,1,-13,3
c2bf9ee7-ddfa-44df-8f73-b11227bb6b05-v16-api36,TRAIN,1779257909797,3,7,0,1,38.8219091,-9.0879415,106,-45,-47,-49,-51,-52,0,-54,-78,-80,-80,-82,48.44,55.28358164952773,0.0,-98,1,-13,3
c2bf9ee7-ddfa-44df-8f73-b11227bb6b05-v16-api36,TRAIN,1779257942279,3,7,0,1,38.8127376,-9.0918067,105,-45,-45,-46,-46,-52,0,-54,-78,-80,-80,-82,50.4,13.886396220762247,0.0,-103,3,-11,3
c2bf9ee7-ddfa-44df-8f73-b11227bb6b05-v16-api36,TRAIN,1779257974845,3,7,0,1,38.8079218,-9.0943952,97,-46,-51,-54,-56,-56,20,-62,-78,-80,-80,-82,143.16,104.71169180182316,0.0,-109,-1,-14,3
c2bf9ee7-ddfa-44df-8f73-b11227bb6b05-v16-api36,TRAIN,1779258007077,3,7,0,1,38.8066503,-9.0950175,125,-46,-51,-54,-56,-57,27,-73,-74,-78,-80,-80,89.8,84.020426087946,0.0,-110,6,-13,3
c2bf9ee7-ddfa-44df-8f73-b11227bb6b05-v16-api36,TRAIN,1779258039400,3,7,0,1,38.8066627,-9.0949213,142,-47,-51,-51,-54,-55,27,-66,-74,-78,-80,-80,401.82,402.6245516607252,0.0,-110,6,-13,3
c2bf9ee7-ddfa-44df-8f73-b11227bb6b05-v16-api36,TRAIN,1779258072428,3,7,0,1,38.8041959,-9.0962336,68,-47,-54,-56,-56,-58,28,-66,-74,-78,-80,-80,701.8,308.8367853737634,0.0,-116,-1,-15,3
c2bf9ee7-ddfa-44df-8f73-b11227bb6b05-v16-api36,TRAIN,1779258104218,3,7,0,1,38.798871,-9.0987838,78,-46,-46,-49,-53,-54,28,-61,-74,-78,-80,-80,55.040000000000006,19.4466038166051,0.0,-91,-1,-14,3
c2bf9ee7-ddfa-44df-8f73-b11227bb6b05-v16-api36,TRAIN,1779258136703,3,7,0,1,38.7954241,-9.0998422,70,-41,-42,-55,-55,-56,36,-66,-72,-74,-74,-78,50.14,27.564513418524186,0.0,-99,3,-11,3
c2bf9ee7-ddfa-44df-8f73-b11227bb6b05-v16-api36,TRAIN,1779258169151,3,7,0,1,38.7949905,-9.0999925,79,-52,-54,-56,-56,-58,37,-60,-72,-74,-74,-78,67.97999999999999,66.34749128640811,0.0,-107,-2,-14,3
c2bf9ee7-ddfa-44df-8f73-b11227bb6b05-v16-api36,TRAIN,1779258201613,3,7,0,1,38.7943386,-9.1001925,71,-54,-56,-56,-56,-60,0,-60,-72,-74,-74,-78,50.2,8.175573374387877,0.0,-98,9,-12,3
c2bf9ee7-ddfa-44df-8f73-b11227bb6b05-v16-api36,TRAIN,1779258233984,3,7,0,1,38.7897548,-9.1012137,72,-47,-50,-58,-58,-58,0,-60,-72,-74,-74,-78,104.17999999999999,91.14885407946718,0.0,-97,6,-13,3
c2bf9ee7-ddfa-44df-8f73-b11227bb6b05-v16-api36,TRAIN,1779258266403,3,7,0,1,38.7821548,-9.1002508,66,-49,-49,-54,-54,-55,38,-57,-72,-74,-74,-78,151.45999999999998,74.74119613707022,0.0,-108,1,-15,3
c2bf9ee7-ddfa-44df-8f73-b11227bb6b05-v16-api36,TRAIN,1779258298532,3,7,0,1,38.7779802,-9.0996953,83,-47,-51,-56,-56,-56,48,-57,-58,-59,-70,-71,114.02000000000001,107.87465689400824,0.0,-109,2,-12,4
c2bf9ee7-ddfa-44df-8f73-b11227bb6b05-v16-api36,TRAIN,1779258330840,3,7,0,1,38.7774488,-9.0995744,94,-50,-52,-55,-55,-56,61,-57,-58,-59,-70,-71,50.08,35.211782119057816,0.0,-101,1,-11,4
c2bf9ee7-ddfa-44df-8f73-b11227bb6b05-v16-api36,TRAIN,1779258363123,3,7,0,1,38.7773689,-9.0996191,73,-48,-51,-52,-54,-54,72,-57,-58,-59,-70,-71,109.13999999999999,107.76798411402154,0.0,-97,-4,-13,4
c2bf9ee7-ddfa-44df-8f73-b11227bb6b05-v16-api36,TRAIN,1779258395312,3,7,0,1,38.7729608,-9.0989529,77,-44,-49,-52,-54,-54,80,-57,-58,-59,-70,-71,38.879999999999995,22.422791976022967,0.0,-93,4,-10,4
f7a5a2a2-5748-4c1d-ae11-61c4dac8867e-v16-api36,METRO,1779212778954,2,18,0,1,38.7429061,-9.12054,154,-36,-44,-44,-52,-52,0,?,?,?,?,?,287.76,279.6841475665004,0.0,-101,3,-9,4
f7a5a2a2-5748-4c1d-ae11-61c4dac8867e-v16-api36,METRO,1779212814916,2,18,0,1,38.7638385,-9.1060172,91,-34,-53,-57,-57,-60,1,-78,?,?,?,?,754.0,778.2561703363916,0.4,-89,30,-4,4
f7a5a2a2-5748-4c1d-ae11-61c4dac8867e-v16-api36,METRO,1779212844704,2,18,0,1,38.7548455,-9.113802,98,-34,-49,-51,-51,-54,1,-76,?,?,?,?,1470.5,1140.5,0.6,-89,30,-8,4
f7a5a2a2-5748-4c1d-ae11-61c4dac8867e-v16-api36,METRO,1779212876206,2,18,0,1,38.7548455,-9.113802,77,-36,-42,-54,-55,-59,1,-83,?,?,?,?,24.5,3.4252007240452342,0.0,-81,24,-5,4
